CapLotSizing_PM/src/Instancias/NCHSLT/6i6p2m/NBB05.OUT
 CG ITER, OVMR, OVMRUB =           1   18986.7187500   18556.0000000
 CG ITER, OVMR, OVMRUB =           2   17971.0000000   17971.0000000
 CG ITER, OVMR, OVMRUB =           3   17927.4062500   17971.0000000
 CG ITER, OVMR, OVMRUB =           4   17359.3984375   17971.0000000
 CG ITER, OVMR, OVMRUB =           5   16305.1416016   17971.0000000
 CG ITER, OVMR, OVMRUB =           6   16163.2187500   17971.0000000
 CG ITER, OVMR, OVMRUB =           7   16081.7949219   17971.0000000
 CG ITER, OVMR, OVMRUB =           8   16051.4482422   17971.0000000
 CG ITER, OVMR, OVMRUB =           9   16040.0605469   17971.0000000
 CG ITER, OVMR, OVMRUB =          10   16001.9707031   17971.0000000
 CG ITER, OVMR, OVMRUB =          11   15998.3027344   17971.0000000
 CG ITER, OVMR, OVMRUB =          12   15998.2656250   17971.0000000
 CG ITER, OVMR, OVMRUB =          13   15998.2656250   17971.0000000
OVLB =   15998.2656250 OVLUB =   17971.0000000 TIME =       0.3500000
